10
0 17 15 13 11 19 15 10 17 17 
17 0 12 16 11 11 13 10 11 17 
15 12 0 13 19 15 17 16 14 19 
13 16 13 0 12 18 12 12 19 10 
11 11 19 12 0 10 12 12 14 18 
19 11 15 18 10 0 17 10 11 11 
15 13 17 12 12 17 0 18 19 17 
10 10 16 12 12 10 18 0 13 14 
17 11 14 19 14 11 19 13 0 17 
17 17 19 10 18 11 17 14 17 0 
